
******************************************************************************
This program contains Ipopt, a library for large-scale nonlinear optimization.
 Ipopt is released as open source code under the Eclipse Public License (EPL).
         For more information visit http://projects.coin-or.org/Ipopt

This version of Ipopt was compiled from source code available at
    https://github.com/IDAES/Ipopt as part of the Institute for the Design of
    Advanced Energy Systems Process Systems Engineering Framework (IDAES PSE
    Framework) Copyright (c) 2018-2019. See https://github.com/IDAES/idaes-pse.

This version of Ipopt was compiled using HSL, a collection of Fortran codes
    for large-scale scientific computation.  All technical papers, sales and
    publicity material resulting from use of the HSL codes within IPOPT must
    contain the following acknowledgement:
        HSL, a collection of Fortran codes for large-scale scientific
        computation. See http://www.hsl.rl.ac.uk.
******************************************************************************

This is Ipopt version 3.13.2, running with linear solver ma27.

Number of nonzeros in equality constraint Jacobian...:      808
Number of nonzeros in inequality constraint Jacobian.:        0
Number of nonzeros in Lagrangian Hessian.............:      702

Total number of variables............................:      351
                     variables with only lower bounds:      108
                variables with lower and upper bounds:      189
                     variables with only upper bounds:        0
Total number of equality constraints.................:      350
Total number of inequality constraints...............:        0
        inequality constraints with only lower bounds:        0
   inequality constraints with lower and upper bounds:        0
        inequality constraints with only upper bounds:        0

iter    objective    inf_pr   inf_du lg(mu)  ||d||  lg(rg) alpha_du alpha_pr  ls
   0  0.0000000e+00 4.53e-01 8.88e-16  -1.0 0.00e+00    -  0.00e+00 0.00e+00   0
   1  7.0930608e+00 1.62e+00 4.51e+04  -1.0 2.60e+05    -  5.77e-01 6.26e-01h  1
   2  7.7859356e+00 1.50e+00 4.19e+04  -1.0 1.25e+05    -  8.32e-01 6.46e-02h  1
   3  8.5418569e+00 1.40e+00 3.92e+04  -1.0 1.67e+05    -  8.35e-01 6.74e-02h  1
   4  2.5778284e+01 9.19e-02 1.03e+04  -1.0 1.58e+05    -  8.50e-01 9.90e-01h  1
   5  2.8061998e+01 5.25e-03 2.07e+03  -1.0 1.50e+04    -  3.49e-01 9.90e-01h  1
   6  2.8101441e+01 6.88e-05 6.83e+04  -1.0 2.52e+02    -  7.68e-01 9.90e-01h  1
   7  2.8107060e+01 1.66e-06 1.36e+07  -1.0 8.47e+01    -  5.47e-01 9.90e-01h  1
   8  2.8118228e+01 1.51e-07 1.19e+09  -1.0 1.79e+02    -  6.03e-01 9.90e-01H  1
   9  2.8118325e+01 1.51e-07 1.92e+11  -1.0 3.94e+02    -  6.33e-01 3.87e-03h  9
iter    objective    inf_pr   inf_du lg(mu)  ||d||  lg(rg) alpha_du alpha_pr  ls
  10  2.8118352e+01 1.51e-07 3.25e+11  -1.0 8.97e+02    -  4.35e-01 4.83e-04h 12
  11  2.8118372e+01 1.51e-07 4.31e+11  -1.0 1.31e+03    -  3.44e-01 2.42e-04h 13
  12  2.8118385e+01 1.51e-07 5.21e+11  -1.0 1.66e+03    -  2.92e-01 1.21e-04h 14
  13  2.8118399e+01 1.51e-07 6.01e+11  -1.0 1.94e+03    -  2.61e-01 1.21e-04h 14
  14  2.8118416e+01 1.51e-07 6.75e+11  -1.0 2.19e+03    -  2.38e-01 1.21e-04h 14
  15  2.8118425e+01 1.51e-07 7.44e+11  -1.0 2.38e+03    -  2.24e-01 6.04e-05h 15
  16  2.8118435e+01 1.51e-07 8.09e+11  -1.0 2.55e+03    -  2.12e-01 6.04e-05h 15
  17  2.8118445e+01 1.51e-07 8.72e+11  -1.0 2.68e+03    -  2.04e-01 6.04e-05h 15
  18  2.8118456e+01 1.51e-07 9.32e+11  -1.0 2.81e+03    -  1.97e-01 6.04e-05h 15
  19  2.8300281e+01 1.71e-03 2.37e+11  -1.0 2.89e+03    -  1.92e-01 9.90e-01w  1
iter    objective    inf_pr   inf_du lg(mu)  ||d||  lg(rg) alpha_du alpha_pr  ls
  20  2.8325273e+01 7.83e-05 7.88e+08  -1.0 3.97e+02    -  9.90e-01 9.90e-01w  1
  21  2.8102733e+01 2.86e-03 8.57e+12  -2.5 3.90e+03    -  9.97e-01 8.99e-01f  1
In iteration 21, 27 Slacks too small, adjusting variable bounds
  22  2.8104470e+01 1.90e-05 2.47e+12  -2.5 3.39e+01    -  1.00e+00 9.97e-01h  1
  23  2.8104448e+01 1.26e-11 6.25e-02  -2.5 3.21e-01    -  1.00e+00 1.00e+00h  1
  24  2.8098819e+01 2.03e-06 1.48e+12  -9.0 9.05e+01    -  1.00e+00 9.87e-01f  1
  25  2.8098817e+01 2.43e-12 1.81e+04  -9.0 3.34e-02    -  1.00e+00 1.00e+00h  1
  26  2.8098817e+01 1.19e-12 7.45e-09  -9.0 1.39e-05    -  1.00e+00 1.00e+00h  1

Number of Iterations....: 26

                                   (scaled)                 (unscaled)
Objective...............:   2.8098817072045811e+01    2.8098817072045811e+01
Dual infeasibility......:   7.4505805969238281e-09    7.4505805969238281e-09
Constraint violation....:   1.1910472608178679e-12    1.1910472608178679e-12
Complementarity.........:   9.0909916328038466e-10    9.0909916328038466e-10
Overall NLP error.......:   1.1910472608178679e-12    7.4505805969238281e-09


Number of objective function evaluations             = 194
Number of objective gradient evaluations             = 27
Number of equality constraint evaluations            = 194
Number of inequality constraint evaluations          = 0
Number of equality constraint Jacobian evaluations   = 27
Number of inequality constraint Jacobian evaluations = 0
Number of Lagrangian Hessian evaluations             = 26
Total CPU secs in IPOPT (w/o function evaluations)   =      0.065
Total CPU secs in NLP function evaluations           =      1.431

EXIT: Optimal Solution Found.
